DIMACS_lns/graph-1000-36.col
p edge 1000 1848
e 1 451
e 1 240
e 1 62
e 1 246
e 1 378
e 1 877
e 1 779
e 1 279
e 2 196
e 2 182
e 2 909
e 2 862
e 3 849
e 3 819
e 3 276
e 4 919
e 4 441
e 4 888
e 4 411
e 4 658
e 4 243
e 4 872
e 4 61
e 4 979
e 5 643
e 5 893
e 5 826
e 5 394
e 5 88
e 5 181
e 6 434
e 6 673
e 6 289
e 7 284
e 7 580
e 7 475
e 8 713
e 8 573
e 8 977
e 8 83
e 8 291
e 8 22
e 8 13
e 8 738
e 8 252
e 10 488
e 10 395
e 10 858
e 11 22
e 11 308
e 11 374
e 11 895
e 12 604
e 12 934
e 12 951
e 12 93
e 13 36
e 13 874
e 13 798
e 13 793
e 13 678
e 13 769
e 16 537
e 16 297
e 16 39
e 16 112
e 18 743
e 18 411
e 18 795
e 18 730
e 18 127
e 18 200
e 18 108
e 19 150
e 19 436
e 19 140
e 19 133
e 19 724
e 19 716
e 19 920
e 20 619
e 20 64
e 20 96
e 20 109
e 21 566
e 21 133
e 21 761
e 21 571
e 21 678
e 21 404
e 22 852
e 22 471
e 22 984
e 22 360
e 23 603
e 23 550
e 23 643
e 23 96
e 24 863
e 24 951
e 24 750
e 24 80
e 24 716
e 25 129
e 25 512
e 25 917
e 25 730
e 25 626
e 25 640
e 26 344
e 26 880
e 26 205
e 26 556
e 26 132
e 27 229
e 27 668
e 27 84
e 27 706
e 27 762
e 27 685
e 27 673
e 30 391
e 30 453
e 30 127
e 30 624
e 30 791
e 30 612
e 32 206
e 32 309
e 32 720
e 32 278
e 32 787
e 36 160
e 36 563
e 36 529
e 36 260
e 38 159
e 38 768
e 38 869
e 38 602
e 38 508
e 38 997
e 39 867
e 39 266
e 39 999
e 41 998
e 41 466
e 41 731
e 41 94
e 41 598
e 41 590
e 41 282
e 41 164
e 43 61
e 43 752
e 43 389
e 44 92
e 44 195
e 44 734
e 44 172
e 46 746
e 46 929
e 46 596
e 46 602
e 47 607
e 47 418
e 47 516
e 48 556
e 48 473
e 48 944
e 48 785
e 48 496
e 50 671
e 50 649
e 50 58
e 50 187
e 50 279
e 50 656
e 52 888
e 52 927
e 52 792
e 53 731
e 53 694
e 53 514
e 53 779
e 54 783
e 54 471
e 54 678
e 54 394
e 54 215
e 54 592
e 55 621
e 55 546
e 55 852
e 56 167
e 56 620
e 56 134
e 56 881
e 58 70
e 58 309
e 58 979
e 59 822
e 59 773
e 59 497
e 59 73
e 59 538
e 59 731
e 60 882
e 60 428
e 60 389
e 61 326
e 61 63
e 61 579
e 61 399
e 61 183
e 61 261
e 62 815
e 62 767
e 62 526
e 62 904
e 62 686
e 63 516
e 63 166
e 64 167
e 64 611
e 64 975
e 64 169
e 65 73
e 65 367
e 65 330
e 65 665
e 66 354
e 66 975
e 66 728
e 66 751
e 66 270
e 66 542
e 67 920
e 67 540
e 67 418
e 67 792
e 67 84
e 67 516
e 67 964
e 68 982
e 68 250
e 68 141
e 68 722
e 68 645
e 68 619
e 68 161
e 69 955
e 69 268
e 69 692
e 70 391
e 70 514
e 70 143
e 70 406
e 71 238
e 71 685
e 71 901
e 72 917
e 72 723
e 72 171
e 72 521
e 73 326
e 73 790
e 73 610
e 73 956
e 73 730
e 73 779
e 76 505
e 76 579
e 76 272
e 76 291
e 76 311
e 78 397
e 78 457
e 78 192
e 79 523
e 79 553
e 79 428
e 79 231
e 79 512
e 79 808
e 79 599
e 80 619
e 80 718
e 80 842
e 82 942
e 82 770
e 82 871
e 82 129
e 83 214
e 83 267
e 83 382
e 83 975
e 84 896
e 84 885
e 84 988
e 84 611
e 85 607
e 85 863
e 85 133
e 85 946
e 85 487
e 85 361
e 86 799
e 86 412
e 86 628
e 87 251
e 87 300
e 87 957
e 87 183
e 87 817
e 87 205
e 88 466
e 88 763
e 88 596
e 88 571
e 88 330
e 89 371
e 89 145
e 89 391
e 89 760
e 90 848
e 90 336
e 90 300
e 90 225
e 90 320
e 90 369
e 92 130
e 92 96
e 92 107
e 92 147
e 92 777
e 92 594
e 93 268
e 93 120
e 93 756
e 93 160
e 93 204
e 93 696
e 94 696
e 94 942
e 95 811
e 95 407
e 95 611
e 95 674
e 96 195
e 96 110
e 96 697
e 99 476
e 99 198
e 99 757
e 99 895
e 99 961
e 99 522
e 100 760
e 100 583
e 100 143
e 100 174
e 100 590
e 101 798
e 101 993
e 101 710
e 101 501
e 103 618
e 103 573
e 103 322
e 103 974
e 103 622
e 103 962
e 104 628
e 104 948
e 104 805
e 104 985
e 104 379
e 104 183
e 105 682
e 105 547
e 105 953
e 106 187
e 106 520
e 106 519
e 106 675
e 106 910
e 107 170
e 107 593
e 107 397
e 107 272
e 108 735
e 108 640
e 108 583
e 108 310
e 109 557
e 109 994
e 109 749
e 110 505
e 110 709
e 111 890
e 111 722
e 111 114
e 111 435
e 111 851
e 111 519
e 111 683
e 111 720
e 112 994
e 112 553
e 112 528
e 114 897
e 114 1000
e 115 856
e 115 304
e 115 875
e 115 480
e 116 509
e 116 686
e 116 982
e 117 891
e 117 378
e 117 691
e 118 713
e 118 887
e 118 877
e 118 437
e 119 207
e 119 406
e 119 923
e 119 951
e 119 965
e 120 538
e 120 799
e 121 465
e 121 928
e 121 412
e 121 707
e 121 899
e 121 240
e 122 829
e 122 898
e 122 284
e 122 811
e 122 285
e 124 935
e 124 395
e 124 349
e 124 151
e 124 720
e 125 245
e 125 725
e 125 709
e 126 504
e 126 738
e 126 335
e 126 152
e 126 470
e 126 578
e 127 908
e 127 332
e 127 174
e 127 577
e 127 389
e 127 396
e 129 619
e 129 541
e 129 649
e 129 205
e 129 808
e 130 249
e 130 856
e 132 191
e 132 514
e 132 706
e 133 968
e 133 401
e 134 721
e 134 599
e 134 538
e 136 424
e 136 195
e 136 897
e 136 360
e 137 710
e 137 635
e 137 933
e 138 616
e 138 280
e 138 554
e 139 141
e 139 705
e 139 212
e 140 449
e 140 348
e 140 190
e 141 672
e 141 288
e 141 904
e 141 698
e 141 504
e 141 198
e 142 263
e 142 444
e 142 377
e 143 987
e 143 867
e 143 763
e 143 787
e 145 481
e 145 999
e 145 678
e 145 905
e 145 275
e 145 187
e 147 477
e 147 906
e 147 315
e 147 448
e 147 264
e 147 588
e 149 291
e 149 624
e 149 383
e 150 557
e 150 261
e 150 414
e 150 597
e 151 603
e 151 924
e 151 445
e 151 577
e 152 924
e 152 370
e 152 563
e 153 300
e 153 972
e 153 647
e 154 721
e 154 767
e 154 825
e 154 233
e 155 423
e 155 300
e 155 353
e 155 600
e 155 500
e 155 973
e 155 452
e 155 196
e 156 825
e 156 188
e 156 480
e 157 927
e 157 164
e 157 424
e 158 358
e 158 236
e 158 917
e 158 465
e 158 487
e 158 550
e 158 618
e 158 740
e 158 267
e 159 613
e 159 226
e 160 878
e 160 203
e 160 616
e 161 766
e 161 567
e 161 382
e 164 442
e 165 597
e 165 306
e 165 400
e 165 912
e 165 369
e 165 558
e 165 786
e 165 843
e 166 744
e 166 434
e 166 925
e 166 314
e 166 753
e 167 904
e 167 402
e 167 575
e 169 819
e 169 735
e 169 870
e 170 700
e 170 413
e 170 525
e 170 985
e 171 268
e 171 383
e 171 750
e 171 322
e 171 716
e 172 236
e 172 974
e 172 351
e 172 546
e 172 296
e 172 217
e 172 540
e 173 519
e 173 820
e 173 222
e 173 725
e 173 734
e 173 560
e 174 513
e 176 797
e 176 279
e 176 470
e 176 434
e 178 230
e 178 451
e 178 731
e 178 220
e 178 255
e 179 205
e 179 475
e 179 196
e 181 554
e 181 270
e 181 284
e 181 720
e 182 489
e 182 576
e 182 447
e 183 224
e 183 382
e 183 645
e 184 268
e 184 880
e 184 527
e 186 218
e 186 226
e 186 580
e 186 895
e 186 286
e 187 951
e 187 439
e 187 924
e 187 843
e 187 447
e 187 743
e 188 567
e 188 348
e 188 292
e 188 867
e 190 364
e 190 310
e 191 675
e 191 266
e 192 396
e 192 723
e 192 963
e 192 748
e 192 204
e 193 988
e 193 954
e 193 975
e 194 493
e 194 893
e 194 337
e 194 787
e 195 377
e 195 461
e 195 220
e 195 477
e 195 705
e 196 762
e 196 504
e 196 626
e 196 237
e 198 439
e 198 306
e 198 584
e 198 514
e 199 337
e 199 865
e 199 390
e 199 752
e 200 437
e 200 640
e 201 567
e 201 391
e 201 533
e 201 354
e 202 279
e 202 326
e 202 993
e 202 762
e 202 532
e 203 451
e 203 424
e 203 779
e 203 818
e 204 547
e 205 589
e 205 964
e 205 842
e 206 533
e 206 700
e 206 534
e 206 707
e 206 576
e 207 413
e 207 792
e 207 278
e 208 699
e 208 416
e 208 680
e 209 851
e 209 944
e 209 954
e 209 772
e 210 526
e 210 898
e 210 419
e 210 894
e 211 948
e 211 379
e 211 818
e 211 646
e 211 972
e 212 658
e 212 688
e 212 957
e 212 329
e 214 914
e 214 682
e 214 703
e 214 872
e 215 243
e 215 720
e 215 500
e 217 941
e 217 772
e 217 381
e 218 331
e 218 391
e 218 910
e 220 507
e 220 812
e 220 739
e 220 681
e 221 352
e 221 664
e 221 404
e 221 542
e 222 942
e 222 912
e 222 488
e 222 353
e 222 944
e 222 964
e 222 434
e 222 398
e 224 229
e 224 450
e 224 283
e 224 943
e 224 721
e 225 310
e 225 246
e 225 279
e 225 800
e 225 265
e 226 849
e 226 752
e 228 643
e 228 300
e 228 634
e 229 577
e 229 613
e 229 419
e 230 235
e 230 261
e 230 486
e 230 242
e 230 919
e 230 699
e 231 916
e 231 303
e 231 718
e 231 768
e 232 787
e 232 729
e 232 850
e 232 584
e 232 754
e 233 691
e 233 909
e 233 718
e 233 885
e 235 569
e 235 993
e 236 332
e 236 777
e 236 683
e 237 356
e 237 465
e 237 265
e 238 520
e 238 242
e 238 880
e 238 924
e 240 864
e 240 818
e 240 852
e 240 883
e 240 754
e 242 883
e 242 383
e 242 976
e 243 341
e 243 779
e 243 767
e 244 445
e 244 841
e 244 284
e 245 835
e 245 555
e 245 428
e 246 591
e 246 990
e 246 506
e 247 662
e 247 865
e 247 923
e 247 895
e 247 309
e 247 812
e 247 892
e 248 636
e 248 541
e 248 378
e 248 327
e 249 768
e 249 858
e 249 988
e 249 513
e 249 431
e 249 892
e 250 644
e 250 814
e 250 270
e 251 784
e 251 770
e 251 398
e 252 981
e 252 323
e 252 621
e 252 701
e 252 696
e 252 636
e 255 790
e 255 964
e 255 598
e 257 444
e 257 862
e 257 864
e 259 532
e 259 752
e 259 321
e 259 641
e 260 403
e 260 629
e 260 428
e 261 823
e 261 479
e 261 447
e 261 459
e 261 641
e 261 848
e 263 661
e 263 783
e 264 791
e 264 485
e 265 470
e 265 345
e 265 795
e 265 985
e 265 766
e 266 689
e 266 906
e 267 665
e 267 402
e 267 331
e 267 898
e 267 852
e 267 342
e 267 923
e 268 943
e 268 709
e 270 396
e 270 696
e 271 645
e 271 457
e 271 694
e 271 685
e 271 901
e 272 849
e 272 629
e 272 723
e 272 691
e 273 829
e 273 949
e 273 492
e 273 627
e 274 904
e 274 890
e 274 561
e 274 379
e 274 800
e 274 862
e 275 364
e 275 594
e 275 485
e 275 850
e 275 641
e 275 929
e 276 951
e 276 797
e 276 851
e 276 741
e 276 577
e 277 851
e 277 962
e 277 741
e 278 977
e 278 706
e 278 817
e 279 792
e 279 525
e 279 795
e 280 850
e 280 994
e 280 773
e 280 738
e 280 928
e 281 851
e 281 681
e 281 671
e 282 521
e 282 680
e 283 885
e 283 901
e 283 913
e 284 365
e 284 590
e 285 763
e 285 914
e 286 332
e 286 714
e 286 902
e 286 294
e 287 356
e 287 674
e 287 344
e 287 304
e 288 413
e 288 905
e 288 949
e 288 967
e 288 636
e 289 719
e 289 974
e 289 752
e 291 300
e 292 509
e 292 683
e 294 515
e 294 997
e 294 423
e 295 328
e 295 469
e 295 629
e 295 316
e 296 610
e 296 620
e 296 694
e 296 712
e 297 619
e 297 998
e 297 445
e 300 329
e 300 698
e 300 756
e 301 830
e 301 423
e 301 945
e 303 973
e 303 358
e 303 864
e 303 750
e 304 555
e 305 751
e 305 367
e 305 645
e 305 742
e 305 566
e 305 452
e 305 346
e 306 434
e 306 845
e 308 680
e 308 475
e 308 707
e 308 957
e 309 450
e 309 503
e 309 595
e 309 506
e 309 976
e 310 650
e 311 951
e 311 515
e 313 601
e 313 984
e 313 529
e 314 740
e 314 451
e 315 685
e 315 611
e 316 867
e 316 390
e 316 391
e 319 335
e 319 376
e 319 891
e 320 829
e 320 909
e 320 580
e 320 770
e 320 685
e 321 628
e 321 341
e 321 856
e 322 562
e 322 604
e 322 528
e 323 577
e 323 361
e 324 836
e 324 649
e 324 738
e 325 773
e 325 712
e 325 523
e 325 556
e 326 346
e 326 639
e 326 673
e 327 371
e 327 650
e 328 851
e 328 607
e 329 883
e 329 374
e 329 517
e 330 682
e 330 967
e 330 752
e 331 849
e 331 693
e 332 672
e 335 503
e 335 949
e 335 496
e 336 748
e 336 963
e 336 887
e 337 675
e 337 664
e 337 471
e 337 956
e 337 589
e 337 878
e 337 728
e 337 943
e 337 500
e 337 661
e 339 411
e 339 360
e 339 347
e 339 695
e 341 874
e 341 961
e 341 528
e 341 399
e 342 955
e 342 352
e 342 619
e 342 601
e 344 922
e 345 672
e 345 917
e 346 462
e 346 793
e 346 372
e 347 946
e 347 844
e 348 746
e 348 597
e 348 556
e 348 571
e 349 934
e 349 567
e 351 651
e 351 662
e 352 695
e 352 995
e 353 452
e 353 673
e 353 837
e 354 813
e 354 548
e 354 361
e 356 541
e 358 713
e 360 475
e 360 448
e 360 555
e 364 507
e 364 760
e 364 987
e 364 954
e 364 587
e 365 492
e 365 697
e 367 703
e 367 981
e 367 908
e 369 924
e 369 975
e 370 651
e 370 371
e 371 547
e 372 400
e 372 523
e 374 558
e 374 719
e 374 500
e 374 651
e 374 632
e 376 407
e 376 439
e 377 451
e 378 893
e 378 870
e 378 635
e 378 683
e 379 394
e 379 701
e 379 515
e 379 517
e 381 967
e 381 716
e 382 600
e 383 809
e 383 438
e 383 553
e 387 785
e 387 925
e 387 725
e 388 567
e 388 901
e 388 820
e 388 895
e 388 773
e 388 453
e 389 510
e 390 756
e 390 395
e 390 841
e 391 963
e 391 616
e 391 835
e 393 596
e 393 450
e 393 798
e 393 953
e 394 702
e 395 734
e 395 434
e 396 919
e 396 636
e 397 412
e 397 743
e 397 463
e 397 989
e 397 481
e 397 527
e 397 402
e 398 467
e 398 975
e 398 463
e 399 843
e 399 975
e 400 921
e 401 485
e 401 934
e 402 564
e 403 659
e 403 858
e 403 820
e 403 789
e 403 494
e 404 820
e 404 654
e 404 817
e 406 574
e 406 843
e 406 917
e 407 459
e 407 494
e 407 728
e 408 831
e 408 437
e 408 891
e 409 858
e 409 675
e 409 645
e 411 621
e 412 813
e 412 946
e 412 689
e 413 836
e 413 830
e 414 557
e 414 559
e 416 614
e 416 922
e 416 938
e 416 780
e 416 838
e 416 703
e 418 938
e 419 659
e 424 707
e 424 680
e 427 914
e 427 634
e 427 477
e 428 957
e 428 907
e 431 634
e 431 938
e 431 979
e 434 835
e 434 920
e 435 441
e 435 867
e 435 977
e 435 459
e 436 914
e 436 601
e 437 885
e 437 618
e 437 844
e 437 763
e 437 919
e 437 471
e 438 685
e 438 810
e 439 641
e 439 768
e 439 742
e 439 534
e 441 805
e 442 509
e 442 462
e 444 793
e 444 721
e 444 849
e 444 907
e 445 955
e 447 921
e 447 799
e 447 916
e 447 569
e 447 647
e 448 927
e 449 738
e 449 614
e 449 592
e 449 785
e 450 555
e 450 517
e 450 936
e 450 891
e 450 880
e 451 811
e 451 515
e 451 600
e 451 692
e 452 462
e 452 917
e 453 919
e 453 984
e 455 529
e 455 686
e 455 718
e 455 823
e 456 942
e 456 891
e 456 932
e 457 965
e 457 811
e 458 862
e 458 875
e 458 905
e 458 836
e 459 516
e 461 505
e 461 532
e 462 682
e 463 936
e 463 720
e 463 547
e 463 852
e 465 554
e 466 643
e 467 520
e 467 574
e 467 561
e 467 641
e 468 738
e 468 988
e 468 674
e 468 523
e 469 754
e 469 476
e 469 923
e 470 489
e 470 485
e 471 646
e 473 888
e 473 735
e 475 656
e 476 712
e 477 899
e 479 506
e 479 622
e 479 943
e 479 963
e 480 665
e 481 576
e 485 619
e 485 569
e 486 646
e 486 914
e 486 544
e 486 721
e 487 626
e 488 897
e 489 519
e 489 821
e 489 922
e 489 556
e 492 989
e 493 558
e 493 662
e 493 902
e 494 703
e 494 787
e 495 581
e 495 716
e 495 676
e 495 757
e 496 773
e 496 703
e 496 922
e 497 532
e 497 526
e 499 941
e 499 843
e 499 508
e 499 953
e 500 912
e 500 748
e 501 616
e 501 692
e 503 528
e 503 521
e 503 818
e 504 943
e 504 800
e 504 549
e 506 513
e 506 624
e 507 719
e 507 749
e 507 592
e 508 909
e 508 844
e 509 612
e 510 748
e 510 710
e 510 567
e 510 589
e 512 603
e 512 792
e 513 676
e 514 997
e 514 756
e 515 783
e 515 741
e 516 883
e 517 651
e 518 637
e 518 975
e 518 858
e 519 786
e 520 521
e 520 567
e 520 668
e 521 640
e 521 644
e 521 668
e 522 976
e 522 762
e 522 578
e 523 780
e 523 618
e 523 636
e 525 693
e 525 624
e 526 573
e 526 964
e 526 683
e 526 769
e 526 761
e 526 576
e 527 859
e 528 620
e 529 843
e 529 534
e 529 649
e 532 947
e 532 924
e 532 782
e 533 640
e 534 620
e 537 875
e 537 731
e 538 779
e 540 823
e 541 902
e 541 689
e 542 719
e 544 566
e 544 792
e 546 887
e 547 731
e 547 656
e 548 883
e 548 671
e 549 935
e 549 646
e 550 676
e 550 699
e 553 703
e 553 724
e 553 910
e 553 976
e 553 694
e 554 602
e 556 658
e 556 786
e 556 596
e 557 647
e 557 928
e 557 650
e 557 1000
e 557 814
e 558 899
e 558 784
e 559 598
e 559 681
e 560 924
e 560 632
e 560 876
e 560 865
e 561 791
e 561 874
e 562 852
e 562 612
e 562 825
e 562 693
e 562 766
e 563 831
e 564 632
e 564 652
e 564 661
e 567 841
e 569 934
e 569 890
e 569 869
e 570 644
e 570 878
e 570 921
e 570 818
e 570 766
e 571 939
e 571 870
e 571 750
e 573 894
e 574 777
e 574 881
e 574 927
e 575 983
e 575 995
e 576 685
e 576 825
e 577 859
e 578 928
e 578 603
e 579 856
e 579 800
e 580 668
e 581 819
e 581 709
e 583 876
e 584 619
e 584 595
e 587 659
e 587 675
e 587 699
e 587 812
e 588 986
e 588 618
e 589 761
e 589 722
e 589 657
e 590 703
e 591 904
e 591 673
e 591 883
e 592 757
e 592 920
e 592 787
e 593 998
e 593 975
e 593 981
e 594 965
e 594 723
e 594 622
e 595 973
e 595 935
e 596 777
e 596 770
e 596 983
e 596 612
e 597 922
e 597 657
e 598 986
e 599 981
e 601 808
e 602 1000
e 602 870
e 602 661
e 603 845
e 604 842
e 604 899
e 604 835
e 604 724
e 608 672
e 608 622
e 608 916
e 610 812
e 610 845
e 610 875
e 610 754
e 611 784
e 611 635
e 611 887
e 611 972
e 611 968
e 612 845
e 612 719
e 613 661
e 613 871
e 614 848
e 614 668
e 616 701
e 618 929
e 618 626
e 619 640
e 619 865
e 619 826
e 620 904
e 621 658
e 621 913
e 622 859
e 622 675
e 622 898
e 622 910
e 623 936
e 623 714
e 623 976
e 624 899
e 624 851
e 624 637
e 625 746
e 625 826
e 625 862
e 626 722
e 626 820
e 626 962
e 626 821
e 627 953
e 627 639
e 628 974
e 628 662
e 629 760
e 629 863
e 632 813
e 634 719
e 634 798
e 635 810
e 635 982
e 636 656
e 636 859
e 637 881
e 639 955
e 639 894
e 643 742
e 645 796
e 645 965
e 646 945
e 647 757
e 647 782
e 647 936
e 647 809
e 647 902
e 650 876
e 651 948
e 652 739
e 652 728
e 654 851
e 654 697
e 654 850
e 654 682
e 657 882
e 657 821
e 657 700
e 658 722
e 661 1000
e 662 885
e 664 882
e 665 773
e 665 862
e 665 725
e 667 949
e 667 908
e 667 744
e 671 836
e 674 772
e 680 874
e 680 787
e 680 867
e 683 924
e 686 898
e 686 893
e 688 693
e 688 928
e 688 805
e 688 739
e 688 924
e 689 895
e 692 698
e 692 914
e 692 814
e 692 925
e 694 831
e 695 962
e 695 719
e 695 943
e 696 882
e 696 887
e 697 740
e 697 939
e 698 703
e 698 888
e 699 906
e 700 874
e 702 848
e 702 922
e 702 773
e 702 979
e 703 997
e 703 987
e 705 815
e 705 819
e 707 891
e 712 941
e 713 922
e 713 938
e 713 766
e 714 956
e 716 738
e 716 856
e 718 740
e 719 939
e 719 875
e 720 939
e 721 842
e 722 988
e 723 858
e 724 947
e 724 904
e 725 973
e 725 977
e 725 954
e 725 933
e 725 779
e 729 912
e 729 777
e 731 863
e 731 901
e 734 777
e 735 740
e 735 977
e 735 825
e 739 864
e 740 799
e 740 932
e 742 874
e 744 750
e 748 875
e 748 988
e 748 935
e 749 885
e 751 896
e 751 866
e 753 933
e 753 797
e 757 975
e 757 866
e 757 837
e 760 767
e 760 856
e 761 858
e 762 869
e 763 918
e 766 989
e 768 880
e 768 892
e 768 812
e 769 796
e 770 949
e 772 938
e 773 780
e 773 994
e 777 875
e 777 925
e 779 944
e 780 986
e 782 985
e 783 919
e 783 920
e 787 817
e 789 800
e 789 825
e 789 1000
e 790 905
e 791 995
e 792 877
e 792 896
e 793 872
e 793 823
e 796 830
e 797 904
e 799 869
e 800 805
e 805 825
e 805 922
e 805 882
e 809 871
e 810 822
e 812 988
e 814 904
e 814 871
e 814 968
e 815 823
e 815 948
e 817 822
e 817 875
e 818 856
e 819 999
e 820 918
e 821 866
e 821 947
e 822 932
e 823 909
e 826 944
e 829 856
e 831 862
e 835 994
e 835 936
e 835 872
e 837 875
e 837 893
e 838 984
e 838 990
e 843 916
e 844 897
e 844 1000
e 848 871
e 848 892
e 848 882
e 850 919
e 852 957
e 858 901
e 858 894
e 859 918
e 862 985
e 862 984
e 863 983
e 865 874
e 869 949
e 870 994
e 872 893
e 872 883
e 875 982
e 885 975
e 891 948
e 902 962
e 905 909
e 906 953
e 907 945
e 908 957
e 909 917
e 913 994
e 941 998
e 942 990
e 946 983
e 961 981
e 967 990
